231136
231136
231136
231136
231136
231136
229704
225039
223954
223954
222702
222702
217872
217872
217872
217872
217872
216029
216029
214267
213137
213137
213137
213137
211723
209703
209220
208328
208328
204330
200900
200900
200900
200122
197778
196296
196296
196296
196296
196296
194811
193780
193780
192273
191852
191852
191852
190567
190137
187867
184770
184770
184101
184101
181975
178250
178250
178250
178250
176978
176978
176849
176849
176849
176849
176849
176849
176321
176321
176321
176321
175322
175322
173305
173305
173305
173305
173305
172240
172240
172240
172240
172240
172240
172240
172240
172240
169692
169692
169692
169692
169201
169201
169201
169201
169201
169201
167234
167234
167234
